c ind 10 13 15 36 38 40 42 44 46 48 0
c ind 5 50 52 54 56 58 6 60 62 64 0
c ind 66 70 71 9 0
p cnf 72 178
-1 -2 11 0
-1 2 72 0
-11 -12 14 0
-11 12 16 0
-12 -13 9 0
-12 -9 13 0
-14 -13 15 0
-14 -15 13 0
-16 -17 19 0
-16 17 72 0
-17 18 0
-17 3 0
-18 -13 5 0
-18 -5 13 0
-19 -20 67 0
-19 20 72 0
-2 3 7 0
-20 21 0
-20 65 0
-21 22 0
-21 63 0
-22 23 0
-22 61 0
-23 24 0
-23 59 0
-24 25 0
-24 57 0
-25 26 0
-25 55 0
-26 27 0
-26 53 0
-27 28 0
-27 51 0
-28 29 0
-28 49 0
-29 30 0
-29 47 0
-3 -4 0
-30 31 0
-30 45 0
-31 32 0
-31 43 0
-32 33 0
-32 41 0
-33 34 0
-33 39 0
-34 35 0
-34 37 0
-35 -13 36 0
-35 -36 13 0
-37 -13 38 0
-37 -38 13 0
-39 -13 40 0
-39 -40 13 0
-4 -5 6 0
-4 -6 5 0
-41 -13 42 0
-41 -42 13 0
-43 -13 44 0
-43 -44 13 0
-45 -13 46 0
-45 -46 13 0
-47 -13 48 0
-47 -48 13 0
-49 -13 50 0
-49 -50 13 0
-51 -13 52 0
-51 -52 13 0
-53 -13 54 0
-53 -54 13 0
-55 -13 56 0
-55 -56 13 0
-57 -13 58 0
-57 -58 13 0
-59 -13 60 0
-59 -60 13 0
-61 -13 62 0
-61 -62 13 0
-63 -13 64 0
-63 -64 13 0
-65 -13 66 0
-65 -66 13 0
-67 -15 68 0
-67 -68 15 0
-68 -69 -71 0
-68 69 71 0
-69 -70 -13 0
-69 70 13 0
-7 -8 0
-71 0
-72 -15 70 0
-72 -70 15 0
-8 -10 9 0
-8 -9 10 0
1 -11 -72 0
1 -2 -11 0
1 0
1 2 -72 0
11 -12 -14 0
11 -14 -16 0
11 12 -16 0
12 -9 -13 0
12 9 13 0
13 0
14 -15 -13 0
14 15 13 0
16 -17 -19 0
16 -19 -72 0
16 17 -72 0
17 -3 -18 0
18 -5 -13 0
18 5 13 0
19 -20 -67 0
19 -67 -72 0
19 20 -72 0
2 -3 0
2 -7 0
20 -21 -65 0
21 -22 -63 0
22 -23 -61 0
23 -24 -59 0
24 -25 -57 0
25 -26 -55 0
26 -27 -53 0
27 -28 -51 0
28 -29 -49 0
29 -30 -47 0
3 4 0
30 -31 -45 0
31 -32 -43 0
32 -33 -41 0
33 -34 -39 0
34 -35 -37 0
35 -36 -13 0
35 36 13 0
37 -38 -13 0
37 38 13 0
39 -40 -13 0
39 40 13 0
4 -5 -6 0
4 5 6 0
41 -42 -13 0
41 42 13 0
43 -44 -13 0
43 44 13 0
45 -46 -13 0
45 46 13 0
47 -48 -13 0
47 48 13 0
49 -50 -13 0
49 50 13 0
51 -52 -13 0
51 52 13 0
53 -54 -13 0
53 54 13 0
55 -56 -13 0
55 56 13 0
57 -58 -13 0
57 58 13 0
59 -60 -13 0
59 60 13 0
61 -62 -13 0
61 62 13 0
63 -64 -13 0
63 64 13 0
65 -66 -13 0
65 66 13 0
67 -15 -68 0
67 15 68 0
68 -69 71 0
68 -71 69 0
69 -13 70 0
69 -70 13 0
7 8 0
72 -15 -70 0
72 15 70 0
8 -9 -10 0
8 9 10 0
